Optimal - objective value 20348.00000000
      0 x0_1                   1                      78
      1 x0_2                   1                      23
      2 x0_3                   1                      32
      3 x0_4                   1                      42
      4 x0_5                   1                    9999
      5 x1_0                   1                      78
      6 x1_2                   0                      98
      7 x1_3                   0                      46
      8 x1_4                   0                      97
      9 x1_5                   0                    9999
     10 x2_0                   1                      23
     11 x2_1                   0                      98
     12 x2_3                   0                      53
     13 x2_4                   0                      54
     14 x2_5                   0                    9999
     15 x3_0                   1                      32
     16 x3_1                   0                      46
     17 x3_2                   0                      53
     18 x3_4                   0                      59
     19 x3_5                   0                    9999
     20 x4_0                   1                      42
     21 x4_1                   0                      97
     22 x4_2                   0                      54
     23 x4_3                   0                      59
     24 x4_5                   0                    9999
     25 x5_0                   1                    9999
     26 x5_1                   0                    9999
     27 x5_2                   0                    9999
     28 x5_3                   0                    9999
     29 x5_4                   0                    9999
     30 u1                    16                       0
     31 u2                    17                       0
     32 u3                    18                       0
     33 u4                    19                       0
     34 u5                    20                       0
